(set-logic ALL)
(declare-fun seed0_T_1 () Bool)
(declare-fun seed0_T_10 () Bool)
(declare-fun seed0_T_11 () Bool)
(declare-fun seed0_T_12 () Bool)
(declare-fun seed0_T_13 () Bool)
(declare-fun seed0_T_14 () Bool)
(declare-fun seed0_T_15 () Bool)
(declare-fun seed0_T_16 () Bool)
(declare-fun seed0_T_2 () Bool)
(declare-fun seed0_T_3 () Bool)
(declare-fun seed0_T_4 () Bool)
(declare-fun seed0_T_5 () Bool)
(declare-fun seed0_T_6 () Bool)
(declare-fun seed0_T_7 () Bool)
(declare-fun seed0_T_8 () Bool)
(declare-fun seed0_T_9 () Bool)
(declare-fun seed0_T_a () Bool)
(declare-fun seed0_T_b () Bool)
(declare-fun seed0_T_c () Bool)
(declare-fun seed0_T_d () Bool)
(declare-fun seed0_T_e () Bool)
(declare-fun seed0_T_f () Bool)
(declare-fun seed0_var_0xINPUT_105016 () String)
(assert (and (or (= seed0_T_1 (not (= "3s71lxYG6e" seed0_var_0xINPUT_105016))) (=> (str.<= (str.++ seed0_var_0xINPUT_105016 "bOiGHpKax1Z5hYS4W2P") (str.++ seed0_var_0xINPUT_105016 "79lYbzeJgctvXxaOR4")) (str.prefixof (str.++ seed0_var_0xINPUT_105016 "oZLSyfJz74P3e862N") (str.++ seed0_var_0xINPUT_105016 "k4")))) (or seed0_T_1 (and (str.suffixof (str.++ seed0_var_0xINPUT_105016 "sp") (str.++ seed0_var_0xINPUT_105016 "zBt")) (str.< (str.++ seed0_var_0xINPUT_105016 "") (str.++ seed0_var_0xINPUT_105016 "")))) (or (= seed0_T_2 (not (= "" seed0_var_0xINPUT_105016))) (str.contains (str.++ seed0_var_0xINPUT_105016 "Vj90pT84cUyLtimzIuO") (str.++ seed0_var_0xINPUT_105016 "ZUa1NDBf8nFu"))) (or seed0_T_2 (str.suffixof (str.++ seed0_var_0xINPUT_105016 "eMCVZgH1j8Lc3O") (str.++ seed0_var_0xINPUT_105016 "jIxcC34znZUs0Xwb"))) (or (= seed0_T_3 (not (= "" seed0_var_0xINPUT_105016))) (xor (str.prefixof (str.++ seed0_var_0xINPUT_105016 "") (str.++ seed0_var_0xINPUT_105016 "hznsdO")) (str.contains (str.++ seed0_var_0xINPUT_105016 "xFImMVCv") (str.++ seed0_var_0xINPUT_105016 "fS")))) (or seed0_T_3 (xor (str.contains (str.++ seed0_var_0xINPUT_105016 "8MDmXNZ") (str.++ seed0_var_0xINPUT_105016 "r8TE")) (str.< (str.++ seed0_var_0xINPUT_105016 "SKZh0TDHgn3") (str.++ seed0_var_0xINPUT_105016 "t5Kb9jY2R8aLf")))) (or (= seed0_T_4 (not (= seed0_var_0xINPUT_105016 ""))) (and (str.prefixof (str.++ seed0_var_0xINPUT_105016 "WV1") (str.++ seed0_var_0xINPUT_105016 "mwuHRWk4tQeZsBXNO7T")) (str.suffixof (str.++ seed0_var_0xINPUT_105016 "Ov1XPF8WNq0") (str.++ seed0_var_0xINPUT_105016 "ghH9p1XR2K")))) (or seed0_T_4 (xor (str.prefixof (str.++ seed0_var_0xINPUT_105016 "JA6qEZTN0Ioe5Vwj1d") (str.++ seed0_var_0xINPUT_105016 "qjXKQskb4BU8LoEiROVM")) (str.prefixof (str.++ seed0_var_0xINPUT_105016 "LiHOkX") (str.++ seed0_var_0xINPUT_105016 "ob9hDijV5HU")))) (or (= seed0_T_5 (= seed0_var_0xINPUT_105016 "")) (not (str.prefixof (str.++ seed0_var_0xINPUT_105016 "DpkCM18t7o") (str.++ seed0_var_0xINPUT_105016 "")))) (or (= seed0_T_6 (not seed0_T_5)) (str.< (str.++ seed0_var_0xINPUT_105016 "c") (str.++ seed0_var_0xINPUT_105016 ""))) (or seed0_T_6 (xor (str.<= (str.++ seed0_var_0xINPUT_105016 "luy8apseQmZGfMJDzj7") (str.++ seed0_var_0xINPUT_105016 "YfoyBnLvFiw6hZ")) (str.contains (str.++ seed0_var_0xINPUT_105016 "plEtr9Im") (str.++ seed0_var_0xINPUT_105016 "TGI9Hw")))) (or (= seed0_T_7 (not (= "" seed0_var_0xINPUT_105016))) (not (str.<= (str.++ seed0_var_0xINPUT_105016 "ozuQvBTf30xEbs9") (str.++ seed0_var_0xINPUT_105016 "")))) (or seed0_T_7 (and (str.prefixof (str.++ seed0_var_0xINPUT_105016 "c460fu") (str.++ seed0_var_0xINPUT_105016 "ld")) (str.suffixof (str.++ seed0_var_0xINPUT_105016 "h6euszYcfyr7CAJNKkbd") (str.++ seed0_var_0xINPUT_105016 "AYs1uzPQMaDOWFgpSUt")))) (or (= seed0_T_8 (not (= "6JX7G3VKFq" seed0_var_0xINPUT_105016))) (=> (str.< (str.++ seed0_var_0xINPUT_105016 "xgEjqF") (str.++ seed0_var_0xINPUT_105016 "xUPGqC1r2uQYs03IB8")) (str.suffixof (str.++ seed0_var_0xINPUT_105016 "YqUVIgJ3ps9") (str.++ seed0_var_0xINPUT_105016 "ZFCmsnwzv9a1PtBlk")))) (or (= seed0_T_9 (not seed0_T_8)) (and (str.< (str.++ seed0_var_0xINPUT_105016 "9lVZc3Qv") (str.++ seed0_var_0xINPUT_105016 "xz1hMtmGRinrOgL9")) (str.contains (str.++ seed0_var_0xINPUT_105016 "28") (str.++ seed0_var_0xINPUT_105016 "k2h6")))) (or seed0_T_9 (=> (str.prefixof (str.++ seed0_var_0xINPUT_105016 "aGipegu4") (str.++ seed0_var_0xINPUT_105016 "HxwJvQ6DhFU1")) (str.prefixof (str.++ seed0_var_0xINPUT_105016 "gMNZIWVJ") (str.++ seed0_var_0xINPUT_105016 "cqntHIA1DToGwZg")))) (or (= seed0_T_a (not (= seed0_var_0xINPUT_105016 "6JX7G3VKFq"))) (xor (str.< (str.++ seed0_var_0xINPUT_105016 "SHLY9kyKu8xVGzXWa") (str.++ seed0_var_0xINPUT_105016 "3")) (str.suffixof (str.++ seed0_var_0xINPUT_105016 "PGlDAWmi8a6") (str.++ seed0_var_0xINPUT_105016 "VzRwjXL7WIDr")))) (or (= seed0_T_b (not seed0_T_a)) (not (str.<= (str.++ seed0_var_0xINPUT_105016 "7yJWr1VieCf3T42zYLw") (str.++ seed0_var_0xINPUT_105016 "2bw")))) (or seed0_T_b (xor (str.suffixof (str.++ seed0_var_0xINPUT_105016 "Y") (str.++ seed0_var_0xINPUT_105016 "QOguMhk9vYi0H4CKbZ")) (str.suffixof (str.++ seed0_var_0xINPUT_105016 "NOU8seg9PXwaHZCSY0") (str.++ seed0_var_0xINPUT_105016 "3sKSRfXJIPbih")))) (or (= seed0_T_c (= seed0_var_0xINPUT_105016 "")) (str.prefixof (str.++ seed0_var_0xINPUT_105016 "Qdn") (str.++ seed0_var_0xINPUT_105016 "VUiqPlw"))) (or (= seed0_T_d (not seed0_T_c)) (or (str.< (str.++ seed0_var_0xINPUT_105016 "") (str.++ seed0_var_0xINPUT_105016 "6XtlRQ")) (str.< (str.++ seed0_var_0xINPUT_105016 "NB3nXR8y") (str.++ seed0_var_0xINPUT_105016 "H61t5ZcNm7lViob9ks")))) (or seed0_T_d (or (str.suffixof (str.++ seed0_var_0xINPUT_105016 "e91oagK48J3RuWTsN") (str.++ seed0_var_0xINPUT_105016 "CkRnPXONd")) (str.prefixof (str.++ seed0_var_0xINPUT_105016 "tW6ZxG8LH") (str.++ seed0_var_0xINPUT_105016 "3TZvnSRmiYbuA")))) (or (= seed0_T_e (not (= "" seed0_var_0xINPUT_105016))) (not (str.suffixof (str.++ seed0_var_0xINPUT_105016 "FefwRpghOYqux0Gz") (str.++ seed0_var_0xINPUT_105016 "8Tj2prfRGz")))) (or seed0_T_e (or (str.< (str.++ seed0_var_0xINPUT_105016 "G5S6okTJ") (str.++ seed0_var_0xINPUT_105016 "pxzrSoQEkKbuVGM")) (str.contains (str.++ seed0_var_0xINPUT_105016 "osJEOf7TiQSD") (str.++ seed0_var_0xINPUT_105016 "4TowXZ8i370zuyD")))) (or (= seed0_T_f (not (= seed0_var_0xINPUT_105016 ""))) (xor (str.contains (str.++ seed0_var_0xINPUT_105016 "YIOchJm2") (str.++ seed0_var_0xINPUT_105016 "")) (str.<= (str.++ seed0_var_0xINPUT_105016 "vsHz") (str.++ seed0_var_0xINPUT_105016 "YNfjvMo")))) (or seed0_T_f (=> (str.contains (str.++ seed0_var_0xINPUT_105016 "wPEiolW") (str.++ seed0_var_0xINPUT_105016 "of")) (str.suffixof (str.++ seed0_var_0xINPUT_105016 "") (str.++ seed0_var_0xINPUT_105016 "MuNJ98f")))) (or (= seed0_T_10 (not (= "" seed0_var_0xINPUT_105016))) (str.< (str.++ seed0_var_0xINPUT_105016 "CH3V8io9bGIurt") (str.++ seed0_var_0xINPUT_105016 "BoCixLZVksehmt2EjA"))) (or seed0_T_10 (not (str.suffixof (str.++ seed0_var_0xINPUT_105016 "OQghXyxeFlvda5Sm") (str.++ seed0_var_0xINPUT_105016 "Yi")))) (or (= seed0_T_11 (= seed0_var_0xINPUT_105016 "")) (=> (str.< (str.++ seed0_var_0xINPUT_105016 "4zvCbcoykSZd") (str.++ seed0_var_0xINPUT_105016 "dQPuvxNrokm8")) (str.suffixof (str.++ seed0_var_0xINPUT_105016 "34TSuQwDzYMhIPE7Vm") (str.++ seed0_var_0xINPUT_105016 "5V")))) (or (= seed0_T_12 (not seed0_T_11)) (and (str.suffixof (str.++ seed0_var_0xINPUT_105016 "YrDglv5I") (str.++ seed0_var_0xINPUT_105016 "3LhFQmnkzYKcAla1")) (str.<= (str.++ seed0_var_0xINPUT_105016 "0vhH6MLEt52") (str.++ seed0_var_0xINPUT_105016 "pCyeL3fI0gQ7drosxqA")))) (or seed0_T_12 (xor (str.suffixof (str.++ seed0_var_0xINPUT_105016 "cdKeuzUQ") (str.++ seed0_var_0xINPUT_105016 "nByzm")) (str.< (str.++ seed0_var_0xINPUT_105016 "kI") (str.++ seed0_var_0xINPUT_105016 "xhN6YMHl7yuVbI2")))) (or (= seed0_T_13 (not (= "" seed0_var_0xINPUT_105016))) (or (str.<= (str.++ seed0_var_0xINPUT_105016 "jWgDfrsivH8t7oeaPK") (str.++ seed0_var_0xINPUT_105016 "3VJreS7k")) (str.<= (str.++ seed0_var_0xINPUT_105016 "Z5TQB7Ew23") (str.++ seed0_var_0xINPUT_105016 "94braSV0CNUlsQjKG83i")))) (or seed0_T_13 (or (str.< (str.++ seed0_var_0xINPUT_105016 "GJg") (str.++ seed0_var_0xINPUT_105016 "JMzVsqRyI1SOUQg")) (str.<= (str.++ seed0_var_0xINPUT_105016 "n63IOvx4SsAM1BGEw") (str.++ seed0_var_0xINPUT_105016 "NDPkv9unOQsgJf7CaZ")))) (or (= seed0_T_14 (= seed0_var_0xINPUT_105016 "Example:")) (xor (str.contains (str.++ seed0_var_0xINPUT_105016 "XGjORwtrSDaTskAL") (str.++ seed0_var_0xINPUT_105016 "")) (str.prefixof (str.++ seed0_var_0xINPUT_105016 "pZiUHYLh4") (str.++ seed0_var_0xINPUT_105016 "sVrgnEe")))) (or (= seed0_T_15 (not seed0_T_14)) (xor (str.contains (str.++ seed0_var_0xINPUT_105016 "89nj2zX4rCGUexh") (str.++ seed0_var_0xINPUT_105016 "UB9s5hte")) (str.prefixof (str.++ seed0_var_0xINPUT_105016 "YO61xM5a0phVAUZbSqz") (str.++ seed0_var_0xINPUT_105016 "TP")))) (or seed0_T_15 (xor (str.<= (str.++ seed0_var_0xINPUT_105016 "dZolbqKYTWMD93Eu") (str.++ seed0_var_0xINPUT_105016 "0LeMKy5oAtP3dikps")) (str.< (str.++ seed0_var_0xINPUT_105016 "IvMPHDnsK") (str.++ seed0_var_0xINPUT_105016 "Ujlq3yG")))) (or (= seed0_T_16 (not (= seed0_var_0xINPUT_105016 "4PH2ujcENG"))) (not (str.<= (str.++ seed0_var_0xINPUT_105016 "2UNloF4a") (str.++ seed0_var_0xINPUT_105016 "1CEVZ2dyk")))) (or seed0_T_16 (and (str.suffixof (str.++ seed0_var_0xINPUT_105016 "y") (str.++ seed0_var_0xINPUT_105016 "gGJb4kuNAIiC1HsZO")) (str.< (str.++ seed0_var_0xINPUT_105016 "UnQyxrzMd") (str.++ seed0_var_0xINPUT_105016 "Wqmzi6UxKC"))))))
(check-sat)
(exit)